157 128 32 38 23 52 22 27 200 19 75 
82 85 165 196 24 68 145 195 77 34 8 
6 132 29 189 114 106 113 141 184 
4 194 45 107 188 41 80 146 60 143 173 
100 37 168 94 151 112 74 101 70 30 
163 169 180 136 72 66 177 125 99 174 96 
47 156 18 150 187 49 90 148 149 25 
172 197 35 10 159 193 93 102 126 87 139 117 31 
142 14 183 119 129 69 105 84 20 2 127 144 
140 166 98 111 44 124 79 76 28 67 
78 63 1 176 58 181 170 153 154 55 167 36 
199 118 86 160 192 17 121 64 175 
54 133 40 61 198 161 33 109 131 83 
9 12 59 162 135 104 26 191 11 120 73 48 
182 110 3 51 91 179 108 97 42 62 
88 122 186 15 116 95 103 178 39 16 
5 164 46 138 92 89 13 185 71 
57 147 190 137 115 56 
152 43 171 130 134 81 158 
53 21 123 
155 65 50 
7 

